10J3M/DAT/10J3MNNX-10.dat
10 3
20.3454 4.5106
21.288 4.6139
15.6519 3.9562
35.3063 5.9419
28.7887 5.3655
19.5156 4.4176
22.6469 4.7589
17.8378 4.2235
19.4155 4.4063
21.9104 4.6809
46.8753