10J3M/SOL/10J3MNNX-10.sol
solution status: optimal solution found
objective value:                              74.2355
x#1#1                               0.965943161599182 	(obj:0)
x#1#2                              0.0340568384008177 	(obj:0)
x#2#2                                               1 	(obj:0)
x#3#1                                               1 	(obj:0)
x#4#3                                               1 	(obj:0)
x#5#3                                               1 	(obj:0)
x#6#1                                               1 	(obj:0)
x#7#2                               0.552234522164181 	(obj:0)
x#7#3                               0.447765477835819 	(obj:0)
x#8#2                                               1 	(obj:0)
x#9#1                                               1 	(obj:0)
x#10#2                                              1 	(obj:0)
z                                             74.2355 	(obj:1)
